100
-68 63 83 87 68 83 -83 -82 100 89 58 -90 79 95 70 82 1 -27 -86 -24 -38 -45 -31 -59 -37 46 25 18 -52 100 57 -25 10 -19 17 -37 38 -16 -89 67 86 -23 -1 -80 -22 -56 -32 -12 30 76 85 -67 38 -34 -7 31 -42 40 21 90 72 -45 -20 -27 -68 -47 29 49 -83 -77 -92 -40 -37 31 12 -59 -39 23 70 28 -57 78 -49 6 -48 89 -93 41 11 10 -91 -84 -72 71 -10 -98 73 78 25 18
68 -63 -83 -87 -68 -83 83 82 -100 -89 -58 90 -79 -95 -70 -82 -1 27 86 24 38 45 31 59 37 -46 -25 -18 52 -100 -57 25 -10 19 -17 37 -38 16 89 -67 -86 23 1 80 22 56 32 12 -30 -76 -85 67 -38 34 7 -31 42 -40 -21 -90 -72 45 20 27 68 47 -29 -49 83 77 92 40 37 -31 -12 59 39 -23 -70 -28 57 -78 49 -6 48 -89 93 -41 -11 -10 91 84 72 -71 10 98 -73 -78 -25 -18
